(declare-const |K:29| Int)
(declare-const |x':27| Int)
(assert (and (or (not (<= (- |K:29|) 0)) (<= (+ |x':27| (* -2 |K:29|)) 0))
               (or (not (<= (- |K:29|) 0)) (<= (+ (- |x':27|) |K:29|) 0))
               (or (and (= |K:29| 0) (= (- |x':27|) 0))
                     (and (<= (+ (- |K:29|) 1) 0)
                            (<= (+ |x':27| -268435456) 0)
                            (<= (+ (- |x':27|) 1) 0))) (<= (- |K:29|) 0)
               (<= (- |x':27|) 0) (<= (+ (- |x':27|) 268435455) 0)
               (not (= (mod |x':27| 2) 0))))
(check-sat)
